p tw 60 118
36 42
22 57
29 50
7 47
2 41
15 55
28 29
36 37
5 44
12 51
17 56
18 19
30 31
24 55
34 35
25 54
16 17
32 33
26 53
6 7
35 44
38 40
19 58
16 55
2 42
25 26
39 40
13 53
4 43
27 28
35 36
20 58
37 41
4 5
29 30
32 46
37 38
35 43
1 40
30 49
2 3
9 49
14 15
34 44
11 50
17 18
28 50
33 34
19 60
22 56
5 45
17 57
24 54
15 16
3 4
23 56
7 8
21 57
10 11
22 23
27 52
26 52
5 6
33 45
3 42
19 59
23 55
8 9
20 60
31 32
36 43
1 2
29 49
7 46
15 54
6 46
37 42
10 49
12 13
20 21
27 51
31 47
1 41
30 48
25 53
11 51
38 41
12 52
18 57
31 48
10 50
9 10
6 45
1 39
14 53
13 52
8 48
11 12
23 24
8 47
20 59
21 58
26 27
32 47
38 39
13 14
21 22
33 46
3 43
18 58
24 25
9 48
4 44
34 45
16 56
59 60
28 51
14 54